SimulateSamplingPython/5adc84f543c2470fad7fa9659379e57c-pulp.sol
Optimal - objective value 0.00000000
      0 C0000000               0                       0
**       1 C0000001      -1.9999999          -1.000001e+010
      2 C0000002      -1.9999999                       0
      3 C0000003  -4.633443e+008                       0
      4 C0000004       8153.9995                       0
**       5 C0000005       8153.9995           1.564987e+008
      6 C0000006 -4.6334326e+008                       0
      7 C0000007 -4.6334326e+008                       0
      8 C0000008  4.6334325e+008                       0
      0 X0000000 -4.6334326e+008          6.4882772e+011
      1 X0000001 -4.6334326e+008         -6.4898422e+011
      2 X0000002  4.6334325e+008          -1.564987e+008
      3 X0000003               0         -1.0156509e+010
